9 0 1 4 3 7 2 8 6 5 0 211
999999999 7 49 99 49 21 27 64 63 
7 999999999 49 41 23 62 48 52 59 
49 49 999999999 60 98 64 39 25 21 
99 41 60 999999999 31 54 65 40 89 
49 23 98 31 999999999 10 93 82 95 
21 62 64 54 10 999999999 9 78 36 
27 48 39 65 93 9 999999999 60 34 
64 52 25 40 82 78 60 999999999 93 
63 59 21 89 95 36 34 93 999999999 
